c Bi-partite graph

p edge 32768 16
e 12764 20898
e 6518 29268
e 7071 19969
e 2195 29245
e 11975 31076
e 439 28259
e 15812 22815
e 9046 17883
e 254 19345
e 7964 20552
e 5709 26093
e 15017 28367
e 5458 31861
e 6606 17247
e 10606 21114
e 14351 19786
